JOBS = 1..4;
MACHINES = 1..6;
SPEED = 1;
time = array3d(JOBS,MACHINES,1..SPEED,[50,12,33,25,57,17,92,19,75,12,88,19,84,31,82,43,18,75,75,63,64,40,27,79]);
energy = array3d(JOBS,MACHINES,1..SPEED,[60,88,71,77,56,84,39,82,47,88,41,82,43,73,44,65,83,47,47,53,52,67,76,45]);
precedence = array2d(JOBS,MACHINES,[4,1,0,3,5,2,2,3,0,1,4,5,3,2,4,5,0,1,0,3,1,4,5,2]);
ME = 1;
TE = 182;
st_old = array2d(JOBS,MACHINES,[263,206,173,235,313,218,87,179,0,75,198,286,179,93,272,354,0,18,0,218,75,281,370,139]);
SpeedScaling = array2d(JOBS,MACHINES,[1,1,1,1,1,1,1,1,1,1,1,1,1,1,1,1,1,1,1,1,1,1,1,1]);
